8132
0 0 1 0 0 0 1 1 0 0 0 1 1 1 0 0 0 0 1 0
18 18 18 18 18 18 18 2 2 2 2 2 2 2 2 2 2 2 2 12 12 12 12 6 6 12 12 12 6 6 6 6 6 6 6 6 6 6 6 7 7 7 7 7 7 7 7 7 7 7 7 6 7 7 7 7 7 7 7 7 11 11 11 11 11 11 11 7 11 13 13 11 13 11 18 13 13 13 13 13 13 13 13 13 18 13 13 18 13 18 18 18 18 18 18 18 18 18 18 18
